(set-logic NRA)
(declare-fun R () Real)
(declare-fun h () Real)
(declare-fun a () Real)
(assert (exists ((b Real)) (and (< (* (- 1) b) 0) (not (=  b 0)) (< (* (- 1) b R h) 0) (< (* (- 1) b (+ (+ (* b b) (* h (* R (- 2)))) (* a b))) 0) (< (* (- 1) b (+ (+ (* b (* b (- 1))) (* h (* R 2))) (* a b))) 0) (< (* b (+ (+ (* b (* b (- 1))) (* h (* R (- 2)))) (* a b))) 0) (< (* (- 1) R) 0) (< (* (- 1) h) 0) (=  (+ (+ (* b (* b (* b (* b (* b (* b (* b b))))))) (* h (* h (+ (* R (* R (* b (* b (* b (* b (- 8))))))) (* h (* h (* R (* R (* R (* R 16)))))))))) (* a (* a (+ (+ (* b (* b (* b (* b (* b (* b (- 2))))))) (* h (* h (+ (* b (* b (* b (* b 4)))) (* R (* R (* b (* b (- 8))))))))) (* a (* a (* b (* b (* b b))))))))) 0))))
(apply qe)
